p edge 551 516
e 1 2
e 1 3
e 1 4
e 1 5
e 1 6
e 1 7
e 1 8
e 1 9
e 1 10
e 1 11
e 1 12
e 1 13
e 1 14
e 1 15
e 16 17
e 16 18
e 16 19
e 16 20
e 16 21
e 16 22
e 16 23
e 16 24
e 16 25
e 16 26
e 16 27
e 16 28
e 16 29
e 16 30
e 16 31
e 16 32
e 16 33
e 16 34
e 16 35
e 16 36
e 37 38
e 37 39
e 37 40
e 37 41
e 37 42
e 37 43
e 37 44
e 37 45
e 37 46
e 37 47
e 37 48
e 37 49
e 37 50
e 37 51
e 37 52
e 37 53
e 37 54
e 37 55
e 56 57
e 56 58
e 56 59
e 56 60
e 56 61
e 56 62
e 56 63
e 56 64
e 56 65
e 56 66
e 56 67
e 56 68
e 56 69
e 56 70
e 56 71
e 56 72
e 56 73
e 56 74
e 75 76
e 75 77
e 75 78
e 75 79
e 75 80
e 75 81
e 75 82
e 75 83
e 75 84
e 75 85
e 86 87
e 86 88
e 86 89
e 86 90
e 86 91
e 86 92
e 86 93
e 86 94
e 86 95
e 86 96
e 86 97
e 86 98
e 86 99
e 86 100
e 86 101
e 86 102
e 86 103
e 104 105
e 104 106
e 104 107
e 104 108
e 104 109
e 104 110
e 104 111
e 104 112
e 104 113
e 104 114
e 115 116
e 115 117
e 115 118
e 115 119
e 115 120
e 115 121
e 115 122
e 115 123
e 115 124
e 115 125
e 115 126
e 115 127
e 115 128
e 129 130
e 129 131
e 129 132
e 129 133
e 129 134
e 129 135
e 129 136
e 129 137
e 129 138
e 129 139
e 129 140
e 129 141
e 129 142
e 129 143
e 129 144
e 129 145
e 146 147
e 146 148
e 146 149
e 146 150
e 146 151
e 146 152
e 146 153
e 146 154
e 146 155
e 146 156
e 146 157
e 146 158
e 146 159
e 146 160
e 146 161
e 146 162
e 146 163
e 146 164
e 146 165
e 146 166
e 167 168
e 167 169
e 167 170
e 167 171
e 167 172
e 167 173
e 167 174
e 167 175
e 167 176
e 167 177
e 167 178
e 179 180
e 179 181
e 179 182
e 179 183
e 179 184
e 179 185
e 179 186
e 179 187
e 179 188
e 179 189
e 190 191
e 190 192
e 190 193
e 190 194
e 190 195
e 190 196
e 190 197
e 190 198
e 190 199
e 190 200
e 190 201
e 190 202
e 190 203
e 204 205
e 204 206
e 204 207
e 204 208
e 204 209
e 204 210
e 204 211
e 204 212
e 204 213
e 204 214
e 204 215
e 204 216
e 204 217
e 204 218
e 204 219
e 204 220
e 204 221
e 204 222
e 204 223
e 204 224
e 225 226
e 225 227
e 225 228
e 225 229
e 225 230
e 225 231
e 225 232
e 225 233
e 225 234
e 225 235
e 225 236
e 225 237
e 225 238
e 239 240
e 239 241
e 239 242
e 239 243
e 239 244
e 239 245
e 239 246
e 239 247
e 239 248
e 239 249
e 239 250
e 239 251
e 252 253
e 252 254
e 252 255
e 252 256
e 252 257
e 252 258
e 252 259
e 252 260
e 252 261
e 252 262
e 252 263
e 252 264
e 252 265
e 252 266
e 252 267
e 252 268
e 252 269
e 252 270
e 252 271
e 252 272
e 273 274
e 273 275
e 273 276
e 273 277
e 273 278
e 273 279
e 273 280
e 273 281
e 273 282
e 273 283
e 273 284
e 273 285
e 273 286
e 273 287
e 288 289
e 288 290
e 288 291
e 288 292
e 288 293
e 288 294
e 288 295
e 288 296
e 288 297
e 288 298
e 288 299
e 288 300
e 301 302
e 301 303
e 301 304
e 301 305
e 301 306
e 301 307
e 301 308
e 301 309
e 301 310
e 301 311
e 301 312
e 301 313
e 301 314
e 315 316
e 315 317
e 315 318
e 315 319
e 315 320
e 315 321
e 315 322
e 315 323
e 315 324
e 315 325
e 315 326
e 315 327
e 315 328
e 315 329
e 315 330
e 315 331
e 315 332
e 315 333
e 315 334
e 315 335
e 336 337
e 336 338
e 336 339
e 336 340
e 336 341
e 336 342
e 336 343
e 336 344
e 336 345
e 336 346
e 336 347
e 336 348
e 336 349
e 336 350
e 336 351
e 336 352
e 336 353
e 336 354
e 336 355
e 356 357
e 356 358
e 356 359
e 356 360
e 356 361
e 356 362
e 356 363
e 356 364
e 356 365
e 356 366
e 367 368
e 367 369
e 367 370
e 367 371
e 367 372
e 367 373
e 367 374
e 367 375
e 367 376
e 367 377
e 367 378
e 367 379
e 367 380
e 367 381
e 367 382
e 367 383
e 367 384
e 385 386
e 385 387
e 385 388
e 385 389
e 385 390
e 385 391
e 385 392
e 385 393
e 385 394
e 385 395
e 385 396
e 385 397
e 385 398
e 385 399
e 385 400
e 385 401
e 385 402
e 403 404
e 403 405
e 403 406
e 403 407
e 403 408
e 403 409
e 403 410
e 403 411
e 403 412
e 403 413
e 403 414
e 403 415
e 403 416
e 403 417
e 418 419
e 418 420
e 418 421
e 418 422
e 418 423
e 418 424
e 418 425
e 418 426
e 418 427
e 418 428
e 418 429
e 418 430
e 431 432
e 431 433
e 431 434
e 431 435
e 431 436
e 431 437
e 431 438
e 431 439
e 431 440
e 431 441
e 431 442
e 431 443
e 431 444
e 431 445
e 431 446
e 447 448
e 447 449
e 447 450
e 447 451
e 447 452
e 447 453
e 447 454
e 447 455
e 447 456
e 447 457
e 447 458
e 447 459
e 447 460
e 447 461
e 462 463
e 462 464
e 462 465
e 462 466
e 462 467
e 462 468
e 462 469
e 462 470
e 462 471
e 462 472
e 473 474
e 473 475
e 473 476
e 473 477
e 473 478
e 473 479
e 473 480
e 473 481
e 473 482
e 473 483
e 473 484
e 473 485
e 473 486
e 473 487
e 488 489
e 488 490
e 488 491
e 488 492
e 488 493
e 488 494
e 488 495
e 488 496
e 488 497
e 488 498
e 488 499
e 500 501
e 500 502
e 500 503
e 500 504
e 500 505
e 500 506
e 500 507
e 500 508
e 500 509
e 500 510
e 511 512
e 511 513
e 511 514
e 511 515
e 511 516
e 511 517
e 511 518
e 511 519
e 511 520
e 511 521
e 511 522
e 511 523
e 511 524
e 511 525
e 511 526
e 511 527
e 511 528
e 511 529
e 511 530
e 511 531
e 532 533
e 532 534
e 532 535
e 532 536
e 532 537
e 532 538
e 532 539
e 532 540
e 532 541
e 532 542
e 532 543
e 532 544
e 532 545
e 532 546
e 532 547
e 532 548
e 532 549
e 532 550
e 532 551
